55862
49, 48, 17, 23, 21, 29, 10, 22, 46, 36, 39, 16, 52, 15, 42, 33, 1, 27, 31, 25, 11, 45, 2, 14, 9, 12, 18, 30, 4, 47, 54, 34, 53, 26, 55, 6, 28, 3, 43, 13, 51, 40, 7, 37, 5, 41, 35, 24, 20, 50, 38, 8, 44, 32, 19
